projet_m2_wvcp/projet_m2_wvcp/original_wvcp_dzn/r16.clq.dzn
cliques=[{11,5,4,6,3,7,2,9,8,0,1,10},{11,5,4,6,3,7,2,9,8,0,1,10},{67,152,132,53,169,15,122,179,2,141,78,112,29,40},{11,5,4,6,3,7,2,9,8,0,1,10},{114,162,126,19,4,55,31,170,70,144,181,103},{11,5,4,6,3,7,2,9,8,0,1,10},{11,5,4,6,3,7,2,9,8,0,1,10},{11,5,4,6,3,7,2,9,8,0,1,10},{147,115,94,34,164,23,136,63,73,8,56,105,184},{11,5,4,6,3,7,2,9,8,0,1,10},{11,5,4,6,3,7,2,9,8,0,1,10},{11,5,4,6,3,7,2,9,8,0,1,10},{22,19,23,27,17,18,26,12,15,21,16,13,20,25,14,24},{22,19,23,27,17,18,26,12,15,21,16,13,20,25,14,24},{22,19,23,27,17,18,26,12,15,21,16,13,20,25,14,24},{22,19,23,27,17,18,26,12,15,21,16,13,20,25,14,24},{22,19,23,27,17,18,26,12,15,21,16,13,20,25,14,24},{22,19,23,27,17,18,26,12,15,21,16,13,20,25,14,24},{22,19,23,27,17,18,26,12,15,21,16,13,20,25,14,24},{22,19,23,27,17,18,26,12,15,21,16,13,20,25,14,24},{22,19,23,27,17,18,26,12,15,21,16,13,20,25,14,24},{22,19,23,27,17,18,26,12,15,21,16,13,20,25,14,24},{22,19,23,27,17,18,26,12,15,21,16,13,20,25,14,24},{22,19,23,27,17,18,26,12,15,21,16,13,20,25,14,24},{22,19,23,27,17,18,26,12,15,21,16,13,20,25,14,24},{22,19,23,27,17,18,26,12,15,21,16,13,20,25,14,24},{22,19,23,27,17,18,26,12,15,21,16,13,20,25,14,24},{22,19,23,27,17,18,26,12,15,21,16,13,20,25,14,24},{149,97,140,12,87,109,158,28,119,76,37,130},{67,152,132,53,169,15,122,179,2,141,78,112,29,40},{89,69,3,18,143,61,180,125,43,30,102},{114,162,126,19,4,55,31,170,70,144,181,103},{134,171,62,32,7,21,82,46,92,72,155},{47,22,135,183,93,163,146,104,33,127,83,172},{147,115,94,34,164,23,136,63,73,8,56,105,184},{106,48,173,116,185,9,148,74,137,35,84,24},{11,129,26,118,156,139,75,95,64,36},{47,42,48,49,38,41,43,46,39,44,45,37,40,50},{47,42,48,49,38,41,43,46,39,44,45,37,40,50},{47,42,48,49,38,41,43,46,39,44,45,37,40,50},{67,152,132,53,169,15,122,179,2,141,78,112,29,40},{47,42,48,49,38,41,43,46,39,44,45,37,40,50},{47,42,48,49,38,41,43,46,39,44,45,37,40,50},{47,42,48,49,38,41,43,46,39,44,45,37,40,50},{47,42,48,49,38,41,43,46,39,44,45,37,40,50},{47,42,48,49,38,41,43,46,39,44,45,37,40,50},{47,42,48,49,38,41,43,46,39,44,45,37,40,50},{47,22,135,183,93,163,146,104,33,127,83,172},{47,42,48,49,38,41,43,46,39,44,45,37,40,50},{47,42,48,49,38,41,43,46,39,44,45,37,40,50},{47,42,48,49,38,41,43,46,39,44,45,37,40,50},{150,51,59,77,176,13,120,98},{177,167,88,38,110,66,0,99,52,131},{67,152,132,53,169,15,122,179,2,141,78,112,29,40},{123,100,68,41,142,160,153,16,54,79},{114,162,126,19,4,55,31,170,70,144,181,103},{147,115,94,34,164,23,136,63,73,8,56,105,184},{128,186,49,57,85,174,138,117,107,10,165,25},{175,27,166,157,86,108,187,50,58,65,96},{150,51,59,77,176,13,120,98},{42,133,124,17,101,154,113,161,60},{89,69,3,18,143,61,180,125,43,30,102},{134,171,62,32,7,21,82,46,92,72,155},{147,115,94,34,164,23,136,63,73,8,56,105,184},{11,129,26,118,156,139,75,95,64,36},{175,27,166,157,86,108,187,50,58,65,96},{177,167,88,38,110,66,0,99,52,131},{67,152,132,53,169,15,122,179,2,141,78,112,29,40},{123,100,68,41,142,160,153,16,54,79},{89,69,3,18,143,61,180,125,43,30,102},{114,162,126,19,4,55,31,170,70,144,181,103},{67,69,68,66,73,74,75,70,71,72},{134,171,62,32,7,21,82,46,92,72,155},{147,115,94,34,164,23,136,63,73,8,56,105,184},{106,48,173,116,185,9,148,74,137,35,84,24},{11,129,26,118,156,139,75,95,64,36},{149,97,140,12,87,109,158,28,119,76,37,130},{77,85,82,86,78,76,83,80,81,84,79},{67,152,132,53,169,15,122,179,2,141,78,112,29,40},{123,100,68,41,142,160,153,16,54,79},{77,85,82,86,78,76,83,80,81,84,79},{77,85,82,86,78,76,83,80,81,84,79},{134,171,62,32,7,21,82,46,92,72,155},{47,22,135,183,93,163,146,104,33,127,83,172},{106,48,173,116,185,9,148,74,137,35,84,24},{128,186,49,57,85,174,138,117,107,10,165,25},{175,27,166,157,86,108,187,50,58,65,96},{149,97,140,12,87,109,158,28,119,76,37,130},{91,89,94,93,88,87,90,92,95,96},{89,69,3,18,143,61,180,125,43,30,102},{91,89,94,93,88,87,90,92,95,96},{91,89,94,93,88,87,90,92,95,96},{134,171,62,32,7,21,82,46,92,72,155},{47,22,135,183,93,163,146,104,33,127,83,172},{147,115,94,34,164,23,136,63,73,8,56,105,184},{91,89,94,93,88,87,90,92,95,96},{91,89,94,93,88,87,90,92,95,96},{149,97,140,12,87,109,158,28,119,76,37,130},{106,97,100,104,101,107,108,105,99,102,103,98},{106,97,100,104,101,107,108,105,99,102,103,98},{106,97,100,104,101,107,108,105,99,102,103,98},{106,97,100,104,101,107,108,105,99,102,103,98},{89,69,3,18,143,61,180,125,43,30,102},{114,162,126,19,4,55,31,170,70,144,181,103},{47,22,135,183,93,163,146,104,33,127,83,172},{147,115,94,34,164,23,136,63,73,8,56,105,184},{106,97,100,104,101,107,108,105,99,102,103,98},{128,186,49,57,85,174,138,117,107,10,165,25},{106,97,100,104,101,107,108,105,99,102,103,98},{149,97,140,12,87,109,158,28,119,76,37,130},{114,115,111,118,110,109,116,117,112,113},{114,115,111,118,110,109,116,117,112,113},{67,152,132,53,169,15,122,179,2,141,78,112,29,40},{114,115,111,118,110,109,116,117,112,113},{114,162,126,19,4,55,31,170,70,144,181,103},{147,115,94,34,164,23,136,63,73,8,56,105,184},{114,115,111,118,110,109,116,117,112,113},{128,186,49,57,85,174,138,117,107,10,165,25},{114,115,111,118,110,109,116,117,112,113},{128,126,124,123,129,122,125,119,127,121,120},{128,126,124,123,129,122,125,119,127,121,120},{128,126,124,123,129,122,125,119,127,121,120},{67,152,132,53,169,15,122,179,2,141,78,112,29,40},{128,126,124,123,129,122,125,119,127,121,120},{128,126,124,123,129,122,125,119,127,121,120},{128,126,124,123,129,122,125,119,127,121,120},{114,162,126,19,4,55,31,170,70,144,181,103},{47,22,135,183,93,163,146,104,33,127,83,172},{128,126,124,123,129,122,125,119,127,121,120},{128,126,124,123,129,122,125,119,127,121,120},{149,97,140,12,87,109,158,28,119,76,37,130},{134,133,135,136,132,138,139,137,130,131},{67,152,132,53,169,15,122,179,2,141,78,112,29,40},{134,133,135,136,132,138,139,137,130,131},{134,171,62,32,7,21,82,46,92,72,155},{47,22,135,183,93,163,146,104,33,127,83,172},{147,115,94,34,164,23,136,63,73,8,56,105,184},{134,133,135,136,132,138,139,137,130,131},{128,186,49,57,85,174,138,117,107,10,165,25},{134,133,135,136,132,138,139,137,130,131},{149,97,140,12,87,109,158,28,119,76,37,130},{67,152,132,53,169,15,122,179,2,141,78,112,29,40},{123,100,68,41,142,160,153,16,54,79},{89,69,3,18,143,61,180,125,43,30,102},{114,162,126,19,4,55,31,170,70,144,181,103},{145,147,146,140,143,142,141,148,144},{47,22,135,183,93,163,146,104,33,127,83,172},{147,115,94,34,164,23,136,63,73,8,56,105,184},{106,48,173,116,185,9,148,74,137,35,84,24},{149,97,140,12,87,109,158,28,119,76,37,130},{149,150,152,157,153,156,154,151,155},{149,150,152,157,153,156,154,151,155},{67,152,132,53,169,15,122,179,2,141,78,112,29,40},{123,100,68,41,142,160,153,16,54,79},{149,150,152,157,153,156,154,151,155},{134,171,62,32,7,21,82,46,92,72,155},{11,129,26,118,156,139,75,95,64,36},{149,150,152,157,153,156,154,151,155},{149,97,140,12,87,109,158,28,119,76,37,130},{162,159,164,163,166,160,158,165,161},{162,159,164,163,166,160,158,165,161},{162,159,164,163,166,160,158,165,161},{114,162,126,19,4,55,31,170,70,144,181,103},{47,22,135,183,93,163,146,104,33,127,83,172},{147,115,94,34,164,23,136,63,73,8,56,105,184},{128,186,49,57,85,174,138,117,107,10,165,25},{162,159,164,163,166,160,158,165,161},{171,175,167,173,169,168,174,170,172},{171,175,167,173,169,168,174,170,172},{67,152,132,53,169,15,122,179,2,141,78,112,29,40},{114,162,126,19,4,55,31,170,70,144,181,103},{134,171,62,32,7,21,82,46,92,72,155},{47,22,135,183,93,163,146,104,33,127,83,172},{106,48,173,116,185,9,148,74,137,35,84,24},{128,186,49,57,85,174,138,117,107,10,165,25},{171,175,167,173,169,168,174,170,172},{178,183,177,186,180,176,185,179,182,181,184,187},{178,183,177,186,180,176,185,179,182,181,184,187},{178,183,177,186,180,176,185,179,182,181,184,187},{67,152,132,53,169,15,122,179,2,141,78,112,29,40},{178,183,177,186,180,176,185,179,182,181,184,187},{114,162,126,19,4,55,31,170,70,144,181,103},{178,183,177,186,180,176,185,179,182,181,184,187},{47,22,135,183,93,163,146,104,33,127,83,172},{147,115,94,34,164,23,136,63,73,8,56,105,184},{178,183,177,186,180,176,185,179,182,181,184,187},{178,183,177,186,180,176,185,179,182,181,184,187},{178,183,177,186,180,176,185,179,182,181,184,187}];
nr_cliques=188;
