projet_m2_wvcp/projet_m2_wvcp/original_wvcp_dzn/r16.dzn
name="r16";
nr_vertices=188;
nr_edges=1861;
neighborhoods=[{1,2,3,4,5,6,7,8,9,10,11,38,52,66,88,99,110,131,167,177},{0,2,3,4,5,6,7,8,9,10,11,14,39,111,121,151,159,168,178},{0,1,3,4,5,6,7,8,9,10,11,15,29,40,53,67,78,112,122,132,141,152,169,179},{0,1,2,4,5,6,7,8,9,10,11,18,30,43,61,69,89,102,125,143,180},{0,1,2,3,5,6,7,8,9,10,11,19,31,55,70,103,114,126,144,162,170,181},{0,1,2,3,4,6,7,8,9,10,11,44,80,90},{0,1,2,3,4,5,7,8,9,10,11,20,45,71,81,91,145,182},{0,1,2,3,4,5,6,8,9,10,11,21,32,46,62,72,82,92,134,155,171},{0,1,2,3,4,5,6,7,9,10,11,23,34,56,63,73,94,105,115,136,147,164,184},{0,1,2,3,4,5,6,7,8,10,11,24,35,48,74,84,106,116,137,148,173,185},{0,1,2,3,4,5,6,7,8,9,11,25,49,57,85,107,117,128,138,165,174,186},{0,1,2,3,4,5,6,7,8,9,10,26,36,64,75,95,118,129,139,156},{13,14,15,16,17,18,19,20,21,22,23,24,25,26,27,28,37,76,87,97,109,119,130,140,149,158},{12,14,15,16,17,18,19,20,21,22,23,24,25,26,27,51,59,77,98,120,150,176},{1,12,13,15,16,17,18,19,20,21,22,23,24,25,26,27,39,111,121,151,159,168,178},{2,12,13,14,16,17,18,19,20,21,22,23,24,25,26,27,29,40,53,67,78,112,122,132,141,152,169,179},{12,13,14,15,17,18,19,20,21,22,23,24,25,26,27,41,54,68,79,100,123,142,153,160},{12,13,14,15,16,18,19,20,21,22,23,24,25,26,27,42,60,101,113,124,133,154,161},{3,12,13,14,15,16,17,19,20,21,22,23,24,25,26,27,30,43,61,69,89,102,125,143,180},{4,12,13,14,15,16,17,18,20,21,22,23,24,25,26,27,31,55,70,103,114,126,144,162,170,181},{6,12,13,14,15,16,17,18,19,21,22,23,24,25,26,27,45,71,81,91,145,182},{7,12,13,14,15,16,17,18,19,20,22,23,24,25,26,27,32,46,62,72,82,92,134,155,171},{12,13,14,15,16,17,18,19,20,21,23,24,25,26,27,33,47,83,93,104,127,135,146,163,172,183},{8,12,13,14,15,16,17,18,19,20,21,22,24,25,26,27,34,56,63,73,94,105,115,136,147,164,184},{9,12,13,14,15,16,17,18,19,20,21,22,23,25,26,27,35,48,74,84,106,116,137,148,173,185},{10,12,13,14,15,16,17,18,19,20,21,22,23,24,26,27,49,57,85,107,117,128,138,165,174,186},{11,12,13,14,15,16,17,18,19,20,21,22,23,24,25,27,36,64,75,95,118,129,139,156},{12,13,14,15,16,17,18,19,20,21,22,23,24,25,26,50,58,65,86,96,108,157,166,175,187},{12,29,30,31,32,33,34,35,36,37,76,87,97,109,119,130,140,149,158},{2,15,28,30,31,32,33,34,35,36,40,53,67,78,112,122,132,141,152,169,179},{3,18,28,29,31,32,33,34,35,36,43,61,69,89,102,125,143,180},{4,19,28,29,30,32,33,34,35,36,55,70,103,114,126,144,162,170,181},{7,21,28,29,30,31,33,34,35,36,46,62,72,82,92,134,155,171},{22,28,29,30,31,32,34,35,36,47,83,93,104,127,135,146,163,172,183},{8,23,28,29,30,31,32,33,35,36,56,63,73,94,105,115,136,147,164,184},{9,24,28,29,30,31,32,33,34,36,48,74,84,106,116,137,148,173,185},{11,26,28,29,30,31,32,33,34,35,64,75,95,118,129,139,156},{12,28,38,39,40,41,42,43,44,45,46,47,48,49,50,76,87,97,109,119,130,140,149,158},{0,37,39,40,41,42,43,44,45,46,47,48,49,50,52,66,88,99,110,131,167,177},{1,14,37,38,40,41,42,43,44,45,46,47,48,49,50,111,121,151,159,168,178},{2,15,29,37,38,39,41,42,43,44,45,46,47,48,49,50,53,67,78,112,122,132,141,152,169,179},{16,37,38,39,40,42,43,44,45,46,47,48,49,50,54,68,79,100,123,142,153,160},{17,37,38,39,40,41,43,44,45,46,47,48,49,50,60,101,113,124,133,154,161},{3,18,30,37,38,39,40,41,42,44,45,46,47,48,49,50,61,69,89,102,125,143,180},{5,37,38,39,40,41,42,43,45,46,47,48,49,50,80,90},{6,20,37,38,39,40,41,42,43,44,46,47,48,49,50,71,81,91,145,182},{7,21,32,37,38,39,40,41,42,43,44,45,47,48,49,50,62,72,82,92,134,155,171},{22,33,37,38,39,40,41,42,43,44,45,46,48,49,50,83,93,104,127,135,146,163,172,183},{9,24,35,37,38,39,40,41,42,43,44,45,46,47,49,50,74,84,106,116,137,148,173,185},{10,25,37,38,39,40,41,42,43,44,45,46,47,48,50,57,85,107,117,128,138,165,174,186},{27,37,38,39,40,41,42,43,44,45,46,47,48,49,58,65,86,96,108,157,166,175,187},{13,52,53,54,55,56,57,58,59,77,98,120,150,176},{0,38,51,53,54,55,56,57,58,66,88,99,110,131,167,177},{2,15,29,40,51,52,54,55,56,57,58,67,78,112,122,132,141,152,169,179},{16,41,51,52,53,55,56,57,58,68,79,100,123,142,153,160},{4,19,31,51,52,53,54,56,57,58,70,103,114,126,144,162,170,181},{8,23,34,51,52,53,54,55,57,58,63,73,94,105,115,136,147,164,184},{10,25,49,51,52,53,54,55,56,58,85,107,117,128,138,165,174,186},{27,50,51,52,53,54,55,56,57,65,86,96,108,157,166,175,187},{13,51,60,61,62,63,64,65,77,98,120,150,176},{17,42,59,61,62,63,64,65,101,113,124,133,154,161},{3,18,30,43,59,60,62,63,64,65,69,89,102,125,143,180},{7,21,32,46,59,60,61,63,64,65,72,82,92,134,155,171},{8,23,34,56,59,60,61,62,64,65,73,94,105,115,136,147,164,184},{11,26,36,59,60,61,62,63,65,75,95,118,129,139,156},{27,50,58,59,60,61,62,63,64,86,96,108,157,166,175,187},{0,38,52,67,68,69,70,71,72,73,74,75,88,99,110,131,167,177},{2,15,29,40,53,66,68,69,70,71,72,73,74,75,78,112,122,132,141,152,169,179},{16,41,54,66,67,69,70,71,72,73,74,75,79,100,123,142,153,160},{3,18,30,43,61,66,67,68,70,71,72,73,74,75,89,102,125,143,180},{4,19,31,55,66,67,68,69,71,72,73,74,75,103,114,126,144,162,170,181},{6,20,45,66,67,68,69,70,72,73,74,75,81,91,145,182},{7,21,32,46,62,66,67,68,69,70,71,73,74,75,82,92,134,155,171},{8,23,34,56,63,66,67,68,69,70,71,72,74,75,94,105,115,136,147,164,184},{9,24,35,48,66,67,68,69,70,71,72,73,75,84,106,116,137,148,173,185},{11,26,36,64,66,67,68,69,70,71,72,73,74,95,118,129,139,156},{12,28,37,77,78,79,80,81,82,83,84,85,86,87,97,109,119,130,140,149,158},{13,51,59,76,78,79,80,81,82,83,84,85,86,98,120,150,176},{2,15,29,40,53,67,76,77,79,80,81,82,83,84,85,86,112,122,132,141,152,169,179},{16,41,54,68,76,77,78,80,81,82,83,84,85,86,100,123,142,153,160},{5,44,76,77,78,79,81,82,83,84,85,86,90},{6,20,45,71,76,77,78,79,80,82,83,84,85,86,91,145,182},{7,21,32,46,62,72,76,77,78,79,80,81,83,84,85,86,92,134,155,171},{22,33,47,76,77,78,79,80,81,82,84,85,86,93,104,127,135,146,163,172,183},{9,24,35,48,74,76,77,78,79,80,81,82,83,85,86,106,116,137,148,173,185},{10,25,49,57,76,77,78,79,80,81,82,83,84,86,107,117,128,138,165,174,186},{27,50,58,65,76,77,78,79,80,81,82,83,84,85,96,108,157,166,175,187},{12,28,37,76,88,89,90,91,92,93,94,95,96,97,109,119,130,140,149,158},{0,38,52,66,87,89,90,91,92,93,94,95,96,99,110,131,167,177},{3,18,30,43,61,69,87,88,90,91,92,93,94,95,96,102,125,143,180},{5,44,80,87,88,89,91,92,93,94,95,96},{6,20,45,71,81,87,88,89,90,92,93,94,95,96,145,182},{7,21,32,46,62,72,82,87,88,89,90,91,93,94,95,96,134,155,171},{22,33,47,83,87,88,89,90,91,92,94,95,96,104,127,135,146,163,172,183},{8,23,34,56,63,73,87,88,89,90,91,92,93,95,96,105,115,136,147,164,184},{11,26,36,64,75,87,88,89,90,91,92,93,94,96,118,129,139,156},{27,50,58,65,86,87,88,89,90,91,92,93,94,95,108,157,166,175,187},{12,28,37,76,87,98,99,100,101,102,103,104,105,106,107,108,109,119,130,140,149,158},{13,51,59,77,97,99,100,101,102,103,104,105,106,107,108,120,150,176},{0,38,52,66,88,97,98,100,101,102,103,104,105,106,107,108,110,131,167,177},{16,41,54,68,79,97,98,99,101,102,103,104,105,106,107,108,123,142,153,160},{17,42,60,97,98,99,100,102,103,104,105,106,107,108,113,124,133,154,161},{3,18,30,43,61,69,89,97,98,99,100,101,103,104,105,106,107,108,125,143,180},{4,19,31,55,70,97,98,99,100,101,102,104,105,106,107,108,114,126,144,162,170,181},{22,33,47,83,93,97,98,99,100,101,102,103,105,106,107,108,127,135,146,163,172,183},{8,23,34,56,63,73,94,97,98,99,100,101,102,103,104,106,107,108,115,136,147,164,184},{9,24,35,48,74,84,97,98,99,100,101,102,103,104,105,107,108,116,137,148,173,185},{10,25,49,57,85,97,98,99,100,101,102,103,104,105,106,108,117,128,138,165,174,186},{27,50,58,65,86,96,97,98,99,100,101,102,103,104,105,106,107,157,166,175,187},{12,28,37,76,87,97,110,111,112,113,114,115,116,117,118,119,130,140,149,158},{0,38,52,66,88,99,109,111,112,113,114,115,116,117,118,131,167,177},{1,14,39,109,110,112,113,114,115,116,117,118,121,151,159,168,178},{2,15,29,40,53,67,78,109,110,111,113,114,115,116,117,118,122,132,141,152,169,179},{17,42,60,101,109,110,111,112,114,115,116,117,118,124,133,154,161},{4,19,31,55,70,103,109,110,111,112,113,115,116,117,118,126,144,162,170,181},{8,23,34,56,63,73,94,105,109,110,111,112,113,114,116,117,118,136,147,164,184},{9,24,35,48,74,84,106,109,110,111,112,113,114,115,117,118,137,148,173,185},{10,25,49,57,85,107,109,110,111,112,113,114,115,116,118,128,138,165,174,186},{11,26,36,64,75,95,109,110,111,112,113,114,115,116,117,129,139,156},{12,28,37,76,87,97,109,120,121,122,123,124,125,126,127,128,129,130,140,149,158},{13,51,59,77,98,119,121,122,123,124,125,126,127,128,129,150,176},{1,14,39,111,119,120,122,123,124,125,126,127,128,129,151,159,168,178},{2,15,29,40,53,67,78,112,119,120,121,123,124,125,126,127,128,129,132,141,152,169,179},{16,41,54,68,79,100,119,120,121,122,124,125,126,127,128,129,142,153,160},{17,42,60,101,113,119,120,121,122,123,125,126,127,128,129,133,154,161},{3,18,30,43,61,69,89,102,119,120,121,122,123,124,126,127,128,129,143,180},{4,19,31,55,70,103,114,119,120,121,122,123,124,125,127,128,129,144,162,170,181},{22,33,47,83,93,104,119,120,121,122,123,124,125,126,128,129,135,146,163,172,183},{10,25,49,57,85,107,117,119,120,121,122,123,124,125,126,127,129,138,165,174,186},{11,26,36,64,75,95,118,119,120,121,122,123,124,125,126,127,128,139,156},{12,28,37,76,87,97,109,119,131,132,133,134,135,136,137,138,139,140,149,158},{0,38,52,66,88,99,110,130,132,133,134,135,136,137,138,139,167,177},{2,15,29,40,53,67,78,112,122,130,131,133,134,135,136,137,138,139,141,152,169,179},{17,42,60,101,113,124,130,131,132,134,135,136,137,138,139,154,161},{7,21,32,46,62,72,82,92,130,131,132,133,135,136,137,138,139,155,171},{22,33,47,83,93,104,127,130,131,132,133,134,136,137,138,139,146,163,172,183},{8,23,34,56,63,73,94,105,115,130,131,132,133,134,135,137,138,139,147,164,184},{9,24,35,48,74,84,106,116,130,131,132,133,134,135,136,138,139,148,173,185},{10,25,49,57,85,107,117,128,130,131,132,133,134,135,136,137,139,165,174,186},{11,26,36,64,75,95,118,129,130,131,132,133,134,135,136,137,138,156},{12,28,37,76,87,97,109,119,130,141,142,143,144,145,146,147,148,149,158},{2,15,29,40,53,67,78,112,122,132,140,142,143,144,145,146,147,148,152,169,179},{16,41,54,68,79,100,123,140,141,143,144,145,146,147,148,153,160},{3,18,30,43,61,69,89,102,125,140,141,142,144,145,146,147,148,180},{4,19,31,55,70,103,114,126,140,141,142,143,145,146,147,148,162,170,181},{6,20,45,71,81,91,140,141,142,143,144,146,147,148,182},{22,33,47,83,93,104,127,135,140,141,142,143,144,145,147,148,163,172,183},{8,23,34,56,63,73,94,105,115,136,140,141,142,143,144,145,146,148,164,184},{9,24,35,48,74,84,106,116,137,140,141,142,143,144,145,146,147,173,185},{12,28,37,76,87,97,109,119,130,140,150,151,152,153,154,155,156,157,158},{13,51,59,77,98,120,149,151,152,153,154,155,156,157,176},{1,14,39,111,121,149,150,152,153,154,155,156,157,159,168,178},{2,15,29,40,53,67,78,112,122,132,141,149,150,151,153,154,155,156,157,169,179},{16,41,54,68,79,100,123,142,149,150,151,152,154,155,156,157,160},{17,42,60,101,113,124,133,149,150,151,152,153,155,156,157,161},{7,21,32,46,62,72,82,92,134,149,150,151,152,153,154,156,157,171},{11,26,36,64,75,95,118,129,139,149,150,151,152,153,154,155,157},{27,50,58,65,86,96,108,149,150,151,152,153,154,155,156,166,175,187},{12,28,37,76,87,97,109,119,130,140,149,159,160,161,162,163,164,165,166},{1,14,39,111,121,151,158,160,161,162,163,164,165,166,168,178},{16,41,54,68,79,100,123,142,153,158,159,161,162,163,164,165,166},{17,42,60,101,113,124,133,154,158,159,160,162,163,164,165,166},{4,19,31,55,70,103,114,126,144,158,159,160,161,163,164,165,166,170,181},{22,33,47,83,93,104,127,135,146,158,159,160,161,162,164,165,166,172,183},{8,23,34,56,63,73,94,105,115,136,147,158,159,160,161,162,163,165,166,184},{10,25,49,57,85,107,117,128,138,158,159,160,161,162,163,164,166,174,186},{27,50,58,65,86,96,108,157,158,159,160,161,162,163,164,165,175,187},{0,38,52,66,88,99,110,131,168,169,170,171,172,173,174,175,177},{1,14,39,111,121,151,159,167,169,170,171,172,173,174,175,178},{2,15,29,40,53,67,78,112,122,132,141,152,167,168,170,171,172,173,174,175,179},{4,19,31,55,70,103,114,126,144,162,167,168,169,171,172,173,174,175,181},{7,21,32,46,62,72,82,92,134,155,167,168,169,170,172,173,174,175},{22,33,47,83,93,104,127,135,146,163,167,168,169,170,171,173,174,175,183},{9,24,35,48,74,84,106,116,137,148,167,168,169,170,171,172,174,175,185},{10,25,49,57,85,107,117,128,138,165,167,168,169,170,171,172,173,175,186},{27,50,58,65,86,96,108,157,166,167,168,169,170,171,172,173,174,187},{13,51,59,77,98,120,150,177,178,179,180,181,182,183,184,185,186,187},{0,38,52,66,88,99,110,131,167,176,178,179,180,181,182,183,184,185,186,187},{1,14,39,111,121,151,159,168,176,177,179,180,181,182,183,184,185,186,187},{2,15,29,40,53,67,78,112,122,132,141,152,169,176,177,178,180,181,182,183,184,185,186,187},{3,18,30,43,61,69,89,102,125,143,176,177,178,179,181,182,183,184,185,186,187},{4,19,31,55,70,103,114,126,144,162,170,176,177,178,179,180,182,183,184,185,186,187},{6,20,45,71,81,91,145,176,177,178,179,180,181,183,184,185,186,187},{22,33,47,83,93,104,127,135,146,163,172,176,177,178,179,180,181,182,184,185,186,187},{8,23,34,56,63,73,94,105,115,136,147,164,176,177,178,179,180,181,182,183,185,186,187},{9,24,35,48,74,84,106,116,137,148,173,176,177,178,179,180,181,182,183,184,186,187},{10,25,49,57,85,107,117,128,138,165,174,176,177,178,179,180,181,182,183,184,185,187},{27,50,58,65,86,96,108,157,166,175,176,177,178,179,180,181,182,183,184,185,186}];
weights=[325,303,394,530,611,640,607,490,347,348,291,641,512,349,221,462,414,562,525,615,345,456,687,606,209,245,523,586,458,296,289,510,496,415,626,252,245,250,507,384,223,488,657,436,344,308,425,703,568,548,217,563,246,522,401,533,335,465,216,503,242,502,549,473,305,213,395,616,544,606,299,293,258,350,317,313,289,477,368,229,259,249,439,274,247,462,417,494,566,656,330,665,312,596,631,312,209,633,218,288,554,407,266,248,514,292,668,344,340,465,478,653,362,354,690,674,419,393,512,397,236,335,462,565,618,443,675,364,701,562,245,218,580,645,687,640,599,300,394,376,517,378,475,510,251,694,542,691,324,660,633,261,600,449,376,238,404,487,459,649,463,247,688,546,622,268,538,594,474,506,305,657,261,516,454,640,424,603,697,407,459,250,312,631,233,418,551,220];
